Version identifier: 22.1.0.0 | 2022-03-09 | 1a383f8ce
CPXPARAM_Threads                                 1
CPXPARAM_MIP_Strategy_VariableSelect             3
CPXPARAM_TimeLimit                               600
Retaining values of one MIP start for possible repair.
Tried aggregator 2 times.
MIP Presolve eliminated 37 rows and 1 columns.
MIP Presolve added 32 rows and 8 columns.
MIP Presolve modified 73 coefficients.
Aggregator did 8 substitutions.
Reduced MIP has 1213 rows, 5200 columns, and 76896 nonzeros.
Reduced MIP has 5200 binaries, 0 generals, 0 SOSs, and 0 indicators.
Presolve time = 0.10 sec. (133.02 ticks)
Found incumbent of value 1.000000 after 0.13 sec. (146.53 ticks)
Probing time = 0.02 sec. (15.17 ticks)
Tried aggregator 1 time.
Detecting symmetries...
MIP Presolve modified 14 coefficients.
Reduced MIP has 1213 rows, 5200 columns, and 77272 nonzeros.
Reduced MIP has 5200 binaries, 0 generals, 0 SOSs, and 0 indicators.
Presolve time = 0.07 sec. (86.53 ticks)
Probing time = 0.02 sec. (15.22 ticks)
Clique table members: 800.
MIP emphasis: balance optimality and feasibility.
MIP search method: dynamic search.
Parallel mode: none, using 1 thread.
Root relaxation solution time = 0.91 sec. (1058.22 ticks)

        Nodes                                         Cuts/
   Node  Left     Objective  IInf  Best Integer    Best Bound    ItCnt     Gap

*     0+    0                            1.0000    20100.0000              --- 
      0     0      200.0000   837        1.0000      200.0000     4183     --- 
*     0+    0                           37.0000      200.0000           440.54%
      0     0      200.0000   168       37.0000    Cliques: 1     4497  440.54%
      0     0      200.0000   219       37.0000      Cuts: 75     6654  440.54%
      0     0      200.0000   191       37.0000      Cuts: 13     8327  440.54%
*     0+    0                          109.0000      200.0000            83.49%
*     0+    0                          134.0000      200.0000            49.25%
*     0+    0                          184.0000      200.0000             8.70%
      0     0        cutoff            184.0000      200.0000     8327    8.70%
      0     0      200.0000   400      184.0000      Cuts: 11    10243    8.70%
*     0+    0                          188.0000      200.0000             6.38%
*     0+    0                          193.0000      200.0000             3.63%
*     0+    0                          196.0000      200.0000             2.04%
Repair heuristic found nothing.
Detecting symmetries...
      0     2      200.0000   132      196.0000      200.0000    10243    2.04%
Elapsed time = 23.17 sec. (24143.71 ticks, tree = 0.01 MB, solutions = 8)
      1     3      200.0000   166      196.0000      200.0000    15891    2.04%
      2     4      200.0000   133      196.0000      200.0000    18472    2.04%
      3     5      200.0000   326      196.0000      200.0000    22048    2.04%
      4     6      200.0000   149      196.0000      200.0000    23303    2.04%
      5     7      200.0000   319      196.0000      200.0000    27927    2.04%
      6     8      200.0000   150      196.0000      200.0000    32693    2.04%
      7     9      200.0000   454      196.0000      200.0000    36096    2.04%
      8    10      200.0000   163      196.0000      200.0000    36425    2.04%
      9    11      200.0000   335      196.0000      200.0000    40113    2.04%
     11    13      200.0000   502      196.0000      200.0000    44381    2.04%
Elapsed time = 33.26 sec. (34945.38 ticks, tree = 0.08 MB, solutions = 8)
     15    17      200.0000   599      196.0000      200.0000    45946    2.04%
     17    19      200.0000   504      196.0000      200.0000    49976    2.04%
     20    22      200.0000   327      196.0000      200.0000    51461    2.04%
     21    23      200.0000   327      196.0000      200.0000    56364    2.04%
     23    25      200.0000   341      196.0000      200.0000    63171    2.04%
     25    27      197.0000   332      196.0000      200.0000    66984    2.04%
     27    29      200.0000   185      196.0000      200.0000    69312    2.04%
     29    31      200.0000   214      196.0000      200.0000    73344    2.04%
     31    33      200.0000   322      196.0000      200.0000    76546    2.04%
     34    36      200.0000   191      196.0000      200.0000    78942    2.04%
Elapsed time = 45.60 sec. (47968.04 ticks, tree = 0.22 MB, solutions = 8)
     35    37      200.0000   230      196.0000      200.0000    82796    2.04%
     38    40      200.0000   191      196.0000      200.0000    84641    2.04%
     40    42      200.0000   177      196.0000      200.0000    87653    2.04%
     44    46      200.0000   158      196.0000      200.0000    90484    2.04%
     47    49      200.0000   147      196.0000      200.0000    92328    2.04%
     49    51      200.0000   312      196.0000      200.0000    95126    2.04%
     52    54      200.0000   280      196.0000      200.0000    99428    2.04%
     55    57      200.0000   142      196.0000      200.0000   101188    2.04%
     58    59      200.0000   250      196.0000      200.0000   104956    2.04%
     60    61      200.0000   249      196.0000      200.0000   106708    2.04%
Elapsed time = 57.28 sec. (59925.18 ticks, tree = 0.45 MB, solutions = 8)
     63    64      200.0000   224      196.0000      200.0000   108882    2.04%
     67    67      200.0000   219      196.0000      200.0000   111799    2.04%
     70    69      200.0000   172      196.0000      200.0000   114537    2.04%
     74    73      200.0000   287      196.0000      200.0000   118626    2.04%
     76    75      200.0000   352      196.0000      200.0000   122405    2.04%
     78    77      200.0000   318      196.0000      200.0000   127411    2.04%
     80    78      200.0000   240      196.0000      200.0000   133738    2.04%
     84    82      200.0000   247      196.0000      200.0000   136544    2.04%
     87    85      200.0000   205      196.0000      200.0000   140382    2.04%
     89    87      200.0000   246      196.0000      200.0000   144876    2.04%
Elapsed time = 70.35 sec. (72901.23 ticks, tree = 0.75 MB, solutions = 8)
     91    88      199.9725   339      196.0000      200.0000   150813    2.04%
     94    91      200.0000   276      196.0000      200.0000   158596    2.04%
     96    92      199.9630   321      196.0000      200.0000   164597    2.04%
    100    95      199.0000   277      196.0000      200.0000   170784    2.04%
    103    97      200.0000   226      196.0000      200.0000   178403    2.04%
    105    99      200.0000   170      196.0000      200.0000   183558    2.04%
    108   102      200.0000   205      196.0000      200.0000   188832    2.04%
    112   105      199.4551   235      196.0000      200.0000   194106    2.04%
    115   107      199.6316   265      196.0000      200.0000   199176    2.04%
    117   108      199.0000   220      196.0000      200.0000   206407    2.04%
Elapsed time = 84.41 sec. (86432.54 ticks, tree = 0.96 MB, solutions = 8)
    120   111      199.0000   237      196.0000      200.0000   210477    2.04%
    124   115      199.0000    86      196.0000      200.0000   215469    2.04%
    128   119      199.0000   216      196.0000      200.0000   220719    2.04%
    131   122      199.0000   131      196.0000      200.0000   226598    2.04%
    135   125      199.0000    69      196.0000      200.0000   233508    2.04%
    138   127      199.0000   111      196.0000      200.0000   239841    2.04%
    141   130      199.0000   102      196.0000      200.0000   245031    2.04%
    145   132      198.5000   295      196.0000      200.0000   251679    2.04%
    149   135      198.0000   162      196.0000      200.0000   259324    2.04%
    154   139      197.0000    95      196.0000      200.0000   265876    2.04%
Elapsed time = 96.75 sec. (97815.66 ticks, tree = 1.03 MB, solutions = 8)
    160   139    infeasible            196.0000      200.0000   274837    2.04%
    165   139      199.9083   295      196.0000      200.0000   284281    2.04%
    167   140      199.9876   329      196.0000      200.0000   289893    2.04%
    170   142      200.0000   108      196.0000      200.0000   295448    2.04%
    173   144      200.0000    87      196.0000      200.0000   301095    2.04%
    176   146      199.8716   332      196.0000      200.0000   306863    2.04%
    179   148      200.0000   130      196.0000      200.0000   313781    2.04%
    182   151      200.0000   100      196.0000      200.0000   318605    2.04%
    185   153      200.0000    96      196.0000      200.0000   324364    2.04%
    189   155      200.0000    92      196.0000      200.0000   331643    2.04%
Elapsed time = 109.20 sec. (109600.01 ticks, tree = 1.14 MB, solutions = 8)
    192   157      199.9176   242      196.0000      200.0000   338048    2.04%
    196   160      200.0000    82      196.0000      200.0000   341954    2.04%
    201   164      200.0000   205      196.0000      200.0000   347085    2.04%
    205   168      197.0000   179      196.0000      200.0000   350664    2.04%
    209   170      200.0000   199      196.0000      200.0000   356114    2.04%
    213   173      200.0000   163      196.0000      200.0000   361172    2.04%
    218   177      200.0000   114      196.0000      200.0000   364493    2.04%
    222   180      199.8395   198      196.0000      200.0000   369335    2.04%
    227   183      199.9698   192      196.0000      200.0000   376652    2.04%
    230   185      200.0000   140      196.0000      200.0000   382588    2.04%
Elapsed time = 120.72 sec. (120505.63 ticks, tree = 1.47 MB, solutions = 8)
    235   187      199.0000   170      196.0000      200.0000   389329    2.04%
    240   192      199.0000   147      196.0000      200.0000   391871    2.04%
    246   198      199.0000   171      196.0000      200.0000   394253    2.04%
    251   202      199.0000   219      196.0000      200.0000   397343    2.04%
    256   206      199.0000   155      196.0000      200.0000   401421    2.04%
    261   211      199.0000   232      196.0000      200.0000   404332    2.04%
    267   215      198.6667   203      196.0000      200.0000   409205    2.04%
    272   220      199.0000   184      196.0000      200.0000   412067    2.04%
    279   224      198.6696   202      196.0000      200.0000   416476    2.04%
    285   227      197.0000   155      196.0000      200.0000   420390    2.04%
Elapsed time = 132.50 sec. (131275.79 ticks, tree = 1.95 MB, solutions = 8)
    294   234      198.0000   101      196.0000      200.0000   424336    2.04%
    301   236      197.0000    81      196.0000      200.0000   429723    2.04%
    309   243      197.0000    50      196.0000      200.0000   433937    2.04%
    315   242      200.0000   118      196.0000      200.0000   440332    2.04%
    319   245      199.0000   339      196.0000      200.0000   444677    2.04%
    323   249      199.0000   183      196.0000      200.0000   448412    2.04%
    328   254      199.0000   156      196.0000      200.0000   452571    2.04%
    332   255    infeasible            196.0000      200.0000   458982    2.04%
    336   257      198.0000   113      196.0000      200.0000   464732    2.04%
    353   256    infeasible            196.0000      200.0000   490582    2.04%
Elapsed time = 147.43 sec. (144771.86 ticks, tree = 2.07 MB, solutions = 8)
    372   267      198.0000   140      196.0000      200.0000   508011    2.04%
    397   282      198.0000   184      196.0000      200.0000   524599    2.04%
    418   293      199.0000   149      196.0000      200.0000   545968    2.04%
    435   306      199.0000   129      196.0000      200.0000   568368    2.04%
    453   315      197.0000   192      196.0000      200.0000   593767    2.04%
    473   318    infeasible            196.0000      200.0000   621794    2.04%
    494   323      198.6163   284      196.0000      200.0000   646017    2.04%
    520   332      198.0000    82      196.0000      200.0000   666119    2.04%
    537   342      198.0000   111      196.0000      200.0000   686105    2.04%
    569   353      197.0000    72      196.0000      200.0000   708579    2.04%
Elapsed time = 191.18 sec. (183922.99 ticks, tree = 2.26 MB, solutions = 8)
    590   362      198.0000   121      196.0000      200.0000   731049    2.04%
    612   373      197.0000   272      196.0000      200.0000   749941    2.04%
    630   381      200.0000   104      196.0000      200.0000   771283    2.04%
    640   388      200.0000   107      196.0000      200.0000   789424    2.04%
    651   395      199.8269   229      196.0000      200.0000   811107    2.04%
    667   409      199.0000   144      196.0000      200.0000   827144    2.04%
    685   422      198.0000   106      196.0000      200.0000   845572    2.04%
    709   434    infeasible            196.0000      200.0000   868266    2.04%
    726   446      198.0000   156      196.0000      200.0000   885006    2.04%
    753   457      199.0000   154      196.0000      200.0000   905459    2.04%
Elapsed time = 234.85 sec. (223710.23 ticks, tree = 2.51 MB, solutions = 8)
    775   477      197.0000    82      196.0000      200.0000   916547    2.04%
    804   491      198.0000    94      196.0000      200.0000   934194    2.04%
    834   507      199.0000   241      196.0000      200.0000   952326    2.04%
    857   518      200.0000   145      196.0000      200.0000   972706    2.04%
    870   526      199.0000   242      196.0000      200.0000   992835    2.04%
    891   546      198.0000    52      196.0000      200.0000  1004343    2.04%
    915   560      199.0000   131      196.0000      200.0000  1022777    2.04%
    943   573      197.0000   101      196.0000      200.0000  1042297    2.04%
    970   587      197.0000    48      196.0000      200.0000  1059141    2.04%
*   985+  460                          197.0000      200.0000             1.52%
    986   462      200.0000   121      197.0000      200.0000  1069793    1.52%
Elapsed time = 278.18 sec. (262821.09 ticks, tree = 3.12 MB, solutions = 9)
    987   462      199.0000   189      197.0000      200.0000  1072990    1.52%
   1003   474    infeasible            197.0000      200.0000  1091755    1.52%
   1022   487      199.0000   174      197.0000      200.0000  1108555    1.52%
   1045   495    infeasible            197.0000      200.0000  1130189    1.52%
   1070   496    infeasible            197.0000      200.0000  1158070    1.52%
   1088   510      199.0000   206      197.0000      200.0000  1172743    1.52%

Performing restart 1

Repeating presolve.
Tried aggregator 1 time.
MIP Presolve eliminated 0 rows and 197 columns.
MIP Presolve modified 14856 coefficients.
Reduced MIP has 1213 rows, 5003 columns, and 54124 nonzeros.
Reduced MIP has 5003 binaries, 0 generals, 0 SOSs, and 0 indicators.
Presolve time = 0.05 sec. (41.34 ticks)
Tried aggregator 1 time.
Reduced MIP has 1213 rows, 5003 columns, and 54124 nonzeros.
Reduced MIP has 5003 binaries, 0 generals, 0 SOSs, and 0 indicators.
Presolve time = 0.04 sec. (31.06 ticks)
Represolve time = 0.46 sec. (261.44 ticks)
   1095     0      200.0000   233      197.0000       Cuts: 3  1182665    1.52%
   1095     0      200.0000   256      197.0000      Cuts: 14  1184040    1.52%
   1095     0      200.0000   240      197.0000      Cuts: 23  1185850    1.52%
   1095     2      200.0000   155      197.0000      200.0000  1185850    1.52%
   1100     7      200.0000   133      197.0000      200.0000  1198453    1.52%
   1106    13      200.0000   461      197.0000      200.0000  1215374    1.52%
   1114    21      200.0000   296      197.0000      200.0000  1233028    1.52%
Elapsed time = 366.07 sec. (348982.93 ticks, tree = 0.08 MB, solutions = 9)
   1126    33      200.0000   398      197.0000      200.0000  1251153    1.52%
   1138    45      200.0000   321      197.0000      200.0000  1274542    1.52%
   1148    55      200.0000   249      197.0000      200.0000  1293727    1.52%
   1157    64      200.0000   162      197.0000      200.0000  1312058    1.52%
   1166    71      198.0000   243      197.0000      200.0000  1332890    1.52%
   1177    80      200.0000   162      197.0000      200.0000  1352224    1.52%
   1187    87      200.0000   107      197.0000      200.0000  1375106    1.52%
   1195    93      200.0000   129      197.0000      200.0000  1391264    1.52%
   1208   102      198.9265   217      197.0000      200.0000  1410220    1.52%
   1233   122      198.0000   145      197.0000      200.0000  1425363    1.52%
Elapsed time = 419.13 sec. (400334.56 ticks, tree = 0.53 MB, solutions = 9)
   1255   130      198.0000    80      197.0000      200.0000  1443118    1.52%
   1288   143    infeasible            197.0000      200.0000  1459366    1.52%
   1294   149      200.0000   282      197.0000      200.0000  1468338    1.52%
   1301   156      200.0000   238      197.0000      200.0000  1481018    1.52%
   1311   165      199.4844   458      197.0000      200.0000  1494234    1.52%
   1321   174      198.0000   139      197.0000      200.0000  1505832    1.52%
   1335   184      198.0000   180      197.0000      200.0000  1521137    1.52%
   1358   195      198.0000   166      197.0000      200.0000  1539321    1.52%
   1380   203      198.0000   221      197.0000      200.0000  1554928    1.52%
   1407   204      199.0833   239      197.0000      200.0000  1577817    1.52%
Elapsed time = 461.34 sec. (440311.53 ticks, tree = 1.54 MB, solutions = 9)
   1429   217      198.0000   183      197.0000      200.0000  1593596    1.52%
   1443   227      199.0833   143      197.0000      200.0000  1610619    1.52%
   1458   235      200.0000   124      197.0000      200.0000  1630953    1.52%
   1479   250      198.0000   117      197.0000      200.0000  1647728    1.52%
   1498   255      200.0000   114      197.0000      200.0000  1670810    1.52%
   1522   271      198.0000   162      197.0000      200.0000  1686169    1.52%
   1549   279      198.0000   168      197.0000      200.0000  1705997    1.52%
   1572   283      198.0000   197      197.0000      200.0000  1728474    1.52%
   1596   293      198.0000   152      197.0000      200.0000  1746217    1.52%
   1620   299      198.0000   199      197.0000      200.0000  1765679    1.52%
Elapsed time = 504.85 sec. (479819.77 ticks, tree = 2.65 MB, solutions = 9)
   1646   304      198.0000   133      197.0000      200.0000  1785466    1.52%
   1669   313      198.0000   196      197.0000      200.0000  1803692    1.52%
   1693   324      200.0000   158      197.0000      200.0000  1818525    1.52%
   1702   332      200.0000   204      197.0000      200.0000  1835070    1.52%
   1711   341      200.0000   178      197.0000      200.0000  1850070    1.52%
   1723   353      200.0000   197      197.0000      200.0000  1863234    1.52%
   1735   360    infeasible            197.0000      200.0000  1881095    1.52%
   1750   366    infeasible            197.0000      200.0000  1900472    1.52%
   1775   372      199.0000   121      197.0000      200.0000  1919979    1.52%
   1790   371    infeasible            197.0000      200.0000  1941680    1.52%
Elapsed time = 547.00 sec. (519449.26 ticks, tree = 3.52 MB, solutions = 9)
Starting limited solution polishing.
   1805   373    infeasible            197.0000      200.0000  1962835    1.52%
   1822   374      200.0000   130      197.0000      200.0000  1983479    1.52%
   1836   386    infeasible            197.0000      200.0000  1997034    1.52%
   1851   387    infeasible            197.0000      200.0000  2019351    1.52%
   1863   391    infeasible            197.0000      200.0000  2037786    1.52%
   1875   388      200.0000   183      197.0000      200.0000  2060934    1.52%
   1890   389      200.0000   161      197.0000      200.0000  2081318    1.52%
   1906   389      200.0000   174      197.0000      200.0000  2103467    1.52%
   1918   389    infeasible            197.0000      200.0000  2123828    1.52%
   1930   385        cutoff            197.0000      200.0000  2145712    1.52%
Elapsed time = 588.91 sec. (559338.99 ticks, tree = 3.68 MB, solutions = 9)
   1943   389    infeasible            197.0000      200.0000  2167697    1.52%
   1955   388    infeasible            197.0000      200.0000  2190632    1.52%

Clique cuts applied:  13
Cover cuts applied:  1
Mixed integer rounding cuts applied:  2
Zero-half cuts applied:  7

Root node processing (before b&c):
  Real time             =   23.07 sec. (24065.59 ticks)
Sequential b&c:
  Real time             =  576.93 sec. (545728.36 ticks)
                          ------------
Total (root+branch&cut) =  600.00 sec. (569793.96 ticks)
Primal:	197
Dual:	200
Status:	Feasible
Time:	600
Sequence:
	23
	8
	14
	10
	16
	7
	13
	14
	7
	12
	14
	9
	10
	14
	7
	23
	0
	18
	12
	14
	7
	21
	1
	20
	10
	14
	7
	23
	2
	18
	10
	14
	7
	19
	5
	18
	7
	3
	20
	7
	16
	7
	18
	6
	7
	18
	3
	18
	9
	5
	18
	7
	3
	7
	20
	5
	7
	18
	3
	18
	8
	16
	12
	7
	14
	8
	18
	3
	18
	7
	15
	10
	16
	7
	18
	3
	19
	7
	5
	7
	18
	4
	18
	7
	16
	7
	21
	1
	18
	12
	15
	7
	12
	14
	7
	13
	14
	7
	21
	1
	20
	10
	14
	7
	12
	15
	7
	21
	1
	18
	10
	15
	7
	10
	14
	7
	21
	1
	19
	12
	14
	7
	10
	14
	9
	18
	5
	18
	7
	17
	7
	18
	5
	18
	9
	3
	18
	1
	21
	8
	14
	12
	7
	16
	11
	7
	14
	10
	18
	2
	21
	7
	14
	10
	18
	0
	21
	7
	14
	12
	9
	14
	10
	7
	14
	12
	18
	2
	21
	7
	16
	3
	8
	14
	7
	21
	1
	19
	10
	16
	7
	21
	1
	19
	10
	16
	7
	21
	2
	18
	10
	14
	7
	23
	1
	18
	10
